(set-logic QF_NRA)
(set-info :source |Benchmarks generated from hycomp (https://es-static.fbk.eu/tools/hycomp/). BMC instances of non-linear hybrid automata taken from: Alessandro Cimatti, Sergio Mover, Stefano Tonetta, A quantifier-free SMT encoding of non-linear hybrid automata, FMCAD 2012 and Alessandro Cimatti, Sergio Mover, Stefano Tonetta, Quantier-free encoding of invariants for Hybrid Systems, Formal Methods in System Design. This instance solves a BMC problem of depth 1 and uses the quantifier free encoding with equivalences encoding. Contacts: Sergio Mover (mover@fbk.eu), Stefano Tonetta (tonettas@fbk.eu), Alessandro Cimatti (cimatti@fbk.eu).|)
(set-info :smt-lib-version 2.0)
(set-info :category "industrial")
(set-info :status unsat)
;; MathSAT API call trace
;; generated on Mon Mar 19 10:39:15 2012
(declare-fun b.y__AT1 () Real)
(declare-fun b.x__AT0 () Real)
(declare-fun b.speed_y__AT0 () Real)
(declare-fun b.event_is_timed__AT0 () Bool)
(declare-fun b.speed_x__AT0 () Real)
(declare-fun b.event_is_timed__AT1 () Bool)
(declare-fun b.time__AT0 () Real)
(declare-fun b.speed_y__AT1 () Real)
(declare-fun b.y__AT0 () Real)
(declare-fun b.counter.0__AT0 () Bool)
(declare-fun b.counter.1__AT0 () Bool)
(declare-fun b.time__AT1 () Real)
(declare-fun b.bool_atom__AT0 () Bool)
(declare-fun b.counter.2__AT0 () Bool)
(declare-fun b.delta__AT1 () Real)
(declare-fun b.EVENT.0__AT1 () Bool)
(declare-fun b.delta__AT0 () Real)
(declare-fun b.speed_x__AT1 () Real)
(declare-fun b.EVENT.0__AT0 () Bool)
(declare-fun b.x__AT1 () Real)
(declare-fun b.counter.0__AT1 () Bool)
(declare-fun b.EVENT.1__AT0 () Bool)
(declare-fun b.counter.1__AT1 () Bool)
(declare-fun b.counter.2__AT1 () Bool)
(declare-fun b.counter.3__AT1 () Bool)
(declare-fun b.bool_atom__AT1 () Bool)
(declare-fun b.EVENT.1__AT1 () Bool)
(declare-fun b.speed_loss__AT0 () Real)
(declare-fun b.counter.3__AT0 () Bool)
(assert (let ((.def_340 (* (- 1.0) b.speed_x__AT1)))
(let ((.def_341 (* b.speed_x__AT1 .def_340)))
(let ((.def_342 (* (- 1.0) .def_341)))
(let ((.def_373 (* 2.0 .def_342)))
(let ((.def_374 (* b.delta__AT1 .def_373)))
(let ((.def_375 (* 5.0 .def_374)))
(let ((.def_280 (* (- 1.0) b.x__AT1)))
(let ((.def_353 (* b.speed_x__AT1 .def_280)))
(let ((.def_378 (* (- 5.0) .def_353)))
(let ((.def_384 (+ .def_378 .def_375)))
(let ((.def_348 (* b.x__AT1 .def_340)))
(let ((.def_376 (* (- 5.0) .def_348)))
(let ((.def_385 (+ .def_376 .def_384)))
(let ((.def_380 (* (- 49.0) b.delta__AT1)))
(let ((.def_386 (+ .def_380 .def_385)))
(let ((.def_382 (* 5.0 b.speed_y__AT1)))
(let ((.def_387 (+ .def_382 .def_386)))
(let ((.def_391 (<= .def_387 0.0 )))
(let ((.def_354 (* (- 1.0) .def_353)))
(let ((.def_349 (* (- 1.0) .def_348)))
(let ((.def_370 (+ .def_349 .def_354)))
(let ((.def_371 (+ b.speed_y__AT1 .def_370)))
(let ((.def_390 (<= .def_371 0.0 )))
(let ((.def_392 (and .def_390 .def_391)))
(let ((.def_388 (<= 0.0 .def_387)))
(let ((.def_372 (<= 0.0 .def_371)))
(let ((.def_389 (and .def_372 .def_388)))
(let ((.def_393 (or .def_389 .def_392)))
(let ((.def_355 (* b.delta__AT1 .def_354)))
(let ((.def_356 (* 10.0 .def_355)))
(let ((.def_350 (* b.delta__AT1 .def_349)))
(let ((.def_351 (* 10.0 .def_350)))
(let ((.def_362 (+ .def_351 .def_356)))
(let ((.def_339 (* b.delta__AT1 b.delta__AT1)))
(let ((.def_343 (* .def_339 .def_342)))
(let ((.def_344 (* 10.0 .def_343)))
(let ((.def_363 (+ .def_344 .def_362)))
(let ((.def_346 (* (- 49.0) .def_339)))
(let ((.def_364 (+ .def_346 .def_363)))
(let ((.def_337 (* b.speed_y__AT1 b.delta__AT1)))
(let ((.def_338 (* 10.0 .def_337)))
(let ((.def_365 (+ .def_338 .def_364)))
(let ((.def_326 (* b.x__AT1 .def_280)))
(let ((.def_358 (* (- 10.0) .def_326)))
(let ((.def_366 (+ .def_358 .def_365)))
(let ((.def_360 (* 10.0 b.y__AT1)))
(let ((.def_367 (+ .def_360 .def_366)))
(let ((.def_368 (<= 0.0 .def_367)))
(let ((.def_327 (<= .def_326 b.y__AT1)))
(let ((.def_369 (and .def_327 .def_368)))
(let ((.def_394 (and .def_369 .def_393)))
(let ((.def_70 (<= b.speed_loss__AT0 (/ 1 2))))
(let ((.def_67 (<= (/ 1 10) b.speed_loss__AT0)))
(let ((.def_71 (and .def_67 .def_70)))
(let ((.def_395 (and .def_71 .def_394)))
(let ((.def_39 (not b.counter.0__AT0)))
(let ((.def_37 (not b.counter.1__AT0)))
(let ((.def_40 (and .def_37 .def_39)))
(let ((.def_332 (or .def_40 b.counter.3__AT0)))
(let ((.def_45 (not b.counter.3__AT0)))
(let ((.def_42 (not b.counter.2__AT0)))
(let ((.def_43 (and .def_40 .def_42)))
(let ((.def_331 (or .def_43 .def_45)))
(let ((.def_333 (and .def_331 .def_332)))
(let ((.def_328 (and .def_71 .def_327)))
(let ((.def_323 (not b.EVENT.0__AT1)))
(let ((.def_321 (not b.EVENT.1__AT1)))
(let ((.def_324 (or .def_321 .def_323)))
(let ((.def_6 (not b.counter.0__AT1)))
(let ((.def_4 (not b.counter.1__AT1)))
(let ((.def_314 (or .def_4 .def_6)))
(let ((.def_318 (or b.counter.3__AT1 .def_314)))
(let ((.def_315 (or b.counter.2__AT1 .def_314)))
(let ((.def_9 (not b.counter.2__AT1)))
(let ((.def_313 (or .def_6 .def_9)))
(let ((.def_316 (and .def_313 .def_315)))
(let ((.def_12 (not b.counter.3__AT1)))
(let ((.def_317 (or .def_12 .def_316)))
(let ((.def_319 (and .def_317 .def_318)))
(let ((.def_325 (and .def_319 .def_324)))
(let ((.def_329 (and .def_325 .def_328)))
(let ((.def_308 (<= 0.0 b.delta__AT0)))
(let ((.def_58 (not b.EVENT.0__AT0)))
(let ((.def_56 (not b.EVENT.1__AT0)))
(let ((.def_142 (and .def_56 .def_58)))
(let ((.def_144 (not .def_142)))
(let ((.def_309 (or .def_144 .def_308)))
(let ((.def_310 (or b.EVENT.1__AT0 .def_309)))
(let ((.def_183 (= b.bool_atom__AT0 b.bool_atom__AT1)))
(let ((.def_178 (= b.counter.0__AT1 b.counter.0__AT0)))
(let ((.def_176 (= b.counter.1__AT1 b.counter.1__AT0)))
(let ((.def_174 (= b.counter.2__AT1 b.counter.2__AT0)))
(let ((.def_173 (= b.counter.3__AT1 b.counter.3__AT0)))
(let ((.def_175 (and .def_173 .def_174)))
(let ((.def_177 (and .def_175 .def_176)))
(let ((.def_179 (and .def_177 .def_178)))
(let ((.def_304 (and .def_179 .def_183)))
(let ((.def_305 (or .def_144 .def_304)))
(let ((.def_306 (or b.EVENT.1__AT0 .def_305)))
(let ((.def_293 (* (- 10.0) b.y__AT1)))
(let ((.def_79 (* b.delta__AT0 b.delta__AT0)))
(let ((.def_88 (* (- 49.0) .def_79)))
(let ((.def_296 (+ .def_88 .def_293)))
(let ((.def_77 (* b.speed_y__AT0 b.delta__AT0)))
(let ((.def_78 (* 10.0 .def_77)))
(let ((.def_297 (+ .def_78 .def_296)))
(let ((.def_103 (* 10.0 b.y__AT0)))
(let ((.def_298 (+ .def_103 .def_297)))
(let ((.def_299 (= .def_298 0.0 )))
(let ((.def_287 (* (- 5.0) b.speed_y__AT1)))
(let ((.def_125 (* (- 49.0) b.delta__AT0)))
(let ((.def_288 (+ .def_125 .def_287)))
(let ((.def_127 (* 5.0 b.speed_y__AT0)))
(let ((.def_289 (+ .def_127 .def_288)))
(let ((.def_290 (= .def_289 0.0 )))
(let ((.def_279 (* b.speed_x__AT0 b.delta__AT0)))
(let ((.def_283 (+ .def_280 .def_279)))
(let ((.def_284 (+ b.x__AT0 .def_283)))
(let ((.def_285 (= .def_284 0.0 )))
(let ((.def_168 (= b.speed_x__AT0 b.speed_x__AT1)))
(let ((.def_286 (and .def_168 .def_285)))
(let ((.def_291 (and .def_286 .def_290)))
(let ((.def_300 (and .def_291 .def_299)))
(let ((.def_301 (or .def_144 .def_300)))
(let ((.def_165 (= b.y__AT0 b.y__AT1)))
(let ((.def_162 (= b.x__AT0 b.x__AT1)))
(let ((.def_273 (and .def_162 .def_165)))
(let ((.def_274 (and .def_168 .def_273)))
(let ((.def_171 (= b.speed_y__AT0 b.speed_y__AT1)))
(let ((.def_275 (and .def_171 .def_274)))
(let ((.def_270 (= b.delta__AT0 0.0 )))
(let ((.def_271 (and .def_142 .def_270)))
(let ((.def_272 (not .def_271)))
(let ((.def_276 (or .def_272 .def_275)))
(let ((.def_277 (or b.EVENT.1__AT0 .def_276)))
(let ((.def_262 (and .def_168 .def_171)))
(let ((.def_263 (and .def_179 .def_262)))
(let ((.def_264 (or b.bool_atom__AT0 .def_263)))
(let ((.def_238 (or .def_6 b.counter.0__AT0)))
(let ((.def_237 (or b.counter.0__AT1 .def_39)))
(let ((.def_239 (and .def_237 .def_238)))
(let ((.def_240 (and .def_4 .def_239)))
(let ((.def_241 (or b.counter.1__AT0 .def_240)))
(let ((.def_236 (or b.counter.1__AT1 .def_37)))
(let ((.def_242 (and .def_236 .def_241)))
(let ((.def_253 (and .def_9 .def_242)))
(let ((.def_254 (or b.counter.2__AT0 .def_253)))
(let ((.def_248 (and .def_4 .def_39)))
(let ((.def_249 (or b.counter.1__AT0 .def_248)))
(let ((.def_250 (and .def_236 .def_249)))
(let ((.def_251 (and b.counter.2__AT1 .def_250)))
(let ((.def_252 (or .def_42 .def_251)))
(let ((.def_255 (and .def_252 .def_254)))
(let ((.def_256 (and b.counter.3__AT1 .def_255)))
(let ((.def_257 (or b.counter.3__AT0 .def_256)))
(let ((.def_243 (and b.counter.2__AT1 .def_242)))
(let ((.def_244 (or b.counter.2__AT0 .def_243)))
(let ((.def_232 (or b.counter.1__AT1 b.counter.1__AT0)))
(let ((.def_230 (and .def_4 b.counter.0__AT1)))
(let ((.def_231 (or .def_37 .def_230)))
(let ((.def_233 (and .def_231 .def_232)))
(let ((.def_234 (and .def_9 .def_233)))
(let ((.def_235 (or .def_42 .def_234)))
(let ((.def_245 (and .def_235 .def_244)))
(let ((.def_246 (and .def_12 .def_245)))
(let ((.def_247 (or .def_45 .def_246)))
(let ((.def_258 (and .def_247 .def_257)))
(let ((.def_221 (* b.speed_y__AT0 b.speed_y__AT0)))
(let ((.def_220 (* b.speed_x__AT0 b.speed_x__AT0)))
(let ((.def_222 (+ .def_220 .def_221)))
(let ((.def_202 (* (- 1.0) b.speed_loss__AT0)))
(let ((.def_203 (+ 1.0 .def_202)))
(let ((.def_219 (* .def_203 .def_203)))
(let ((.def_223 (* .def_219 .def_222)))
(let ((.def_225 (* (- 1.0) .def_223)))
(let ((.def_216 (* b.speed_y__AT1 b.speed_y__AT1)))
(let ((.def_226 (+ .def_216 .def_225)))
(let ((.def_214 (* b.speed_x__AT1 b.speed_x__AT1)))
(let ((.def_227 (+ .def_214 .def_226)))
(let ((.def_228 (= .def_227 0.0 )))
(let ((.def_207 (* b.speed_y__AT0 .def_203)))
(let ((.def_190 (* (- 2.0) b.x__AT0)))
(let ((.def_191 (* (- 1.0) .def_190)))
(let ((.def_204 (* .def_191 .def_203)))
(let ((.def_205 (* b.speed_x__AT0 .def_204)))
(let ((.def_210 (+ .def_205 .def_207)))
(let ((.def_199 (* (- 2.0) b.x__AT1)))
(let ((.def_200 (* (- 1.0) .def_199)))
(let ((.def_201 (* b.speed_x__AT1 .def_200)))
(let ((.def_211 (+ .def_201 .def_210)))
(let ((.def_212 (+ b.speed_y__AT1 .def_211)))
(let ((.def_213 (= .def_212 0.0 )))
(let ((.def_229 (and .def_213 .def_228)))
(let ((.def_259 (and .def_229 .def_258)))
(let ((.def_198 (not b.bool_atom__AT0)))
(let ((.def_260 (or .def_198 .def_259)))
(let ((.def_192 (* b.speed_x__AT0 .def_191)))
(let ((.def_193 (+ b.speed_y__AT0 .def_192)))
(let ((.def_194 (<= 0.0 .def_193)))
(let ((.def_195 (not .def_194)))
(let ((.def_62 (* (- 1.0) b.x__AT0)))
(let ((.def_63 (* b.x__AT0 .def_62)))
(let ((.def_188 (= b.y__AT0 .def_63)))
(let ((.def_196 (and .def_188 .def_195)))
(let ((.def_197 (= b.bool_atom__AT0 .def_196)))
(let ((.def_261 (and .def_197 .def_260)))
(let ((.def_265 (and .def_261 .def_264)))
(let ((.def_266 (and .def_162 .def_265)))
(let ((.def_267 (and .def_165 .def_266)))
(let ((.def_268 (or .def_142 .def_267)))
(let ((.def_269 (or b.EVENT.1__AT0 .def_268)))
(let ((.def_278 (and .def_269 .def_277)))
(let ((.def_302 (and .def_278 .def_301)))
(let ((.def_149 (= b.time__AT0 b.time__AT1)))
(let ((.def_163 (and .def_149 .def_162)))
(let ((.def_166 (and .def_163 .def_165)))
(let ((.def_169 (and .def_166 .def_168)))
(let ((.def_172 (and .def_169 .def_171)))
(let ((.def_180 (and .def_172 .def_179)))
(let ((.def_184 (and .def_180 .def_183)))
(let ((.def_185 (or .def_56 .def_184)))
(let ((.def_152 (* (- 1.0) b.time__AT1)))
(let ((.def_155 (+ b.delta__AT0 .def_152)))
(let ((.def_156 (+ b.time__AT0 .def_155)))
(let ((.def_157 (= .def_156 0.0 )))
(let ((.def_158 (or .def_144 .def_157)))
(let ((.def_159 (or b.EVENT.1__AT0 .def_158)))
(let ((.def_150 (or .def_142 .def_149)))
(let ((.def_151 (or b.EVENT.1__AT0 .def_150)))
(let ((.def_160 (and .def_151 .def_159)))
(let ((.def_186 (and .def_160 .def_185)))
(let ((.def_146 (= .def_144 b.event_is_timed__AT1)))
(let ((.def_143 (= b.event_is_timed__AT0 .def_142)))
(let ((.def_147 (and .def_143 .def_146)))
(let ((.def_187 (and .def_147 .def_186)))
(let ((.def_303 (and .def_187 .def_302)))
(let ((.def_307 (and .def_303 .def_306)))
(let ((.def_311 (and .def_307 .def_310)))
(let ((.def_312 (and .def_56 .def_311)))
(let ((.def_330 (and .def_312 .def_329)))
(let ((.def_334 (and .def_330 .def_333)))
(let ((.def_80 (* (- 1.0) b.speed_x__AT0)))
(let ((.def_81 (* b.speed_x__AT0 .def_80)))
(let ((.def_82 (* (- 1.0) .def_81)))
(let ((.def_116 (* 2.0 .def_82)))
(let ((.def_117 (* b.delta__AT0 .def_116)))
(let ((.def_119 (* 5.0 .def_117)))
(let ((.def_95 (* b.speed_x__AT0 .def_62)))
(let ((.def_123 (* (- 5.0) .def_95)))
(let ((.def_129 (+ .def_123 .def_119)))
(let ((.def_90 (* b.x__AT0 .def_80)))
(let ((.def_121 (* (- 5.0) .def_90)))
(let ((.def_130 (+ .def_121 .def_129)))
(let ((.def_131 (+ .def_125 .def_130)))
(let ((.def_132 (+ .def_127 .def_131)))
(let ((.def_136 (<= .def_132 0.0 )))
(let ((.def_96 (* (- 1.0) .def_95)))
(let ((.def_91 (* (- 1.0) .def_90)))
(let ((.def_113 (+ .def_91 .def_96)))
(let ((.def_114 (+ b.speed_y__AT0 .def_113)))
(let ((.def_135 (<= .def_114 0.0 )))
(let ((.def_137 (and .def_135 .def_136)))
(let ((.def_133 (<= 0.0 .def_132)))
(let ((.def_115 (<= 0.0 .def_114)))
(let ((.def_134 (and .def_115 .def_133)))
(let ((.def_138 (or .def_134 .def_137)))
(let ((.def_97 (* b.delta__AT0 .def_96)))
(let ((.def_98 (* 10.0 .def_97)))
(let ((.def_92 (* b.delta__AT0 .def_91)))
(let ((.def_93 (* 10.0 .def_92)))
(let ((.def_105 (+ .def_93 .def_98)))
(let ((.def_83 (* .def_79 .def_82)))
(let ((.def_84 (* 10.0 .def_83)))
(let ((.def_106 (+ .def_84 .def_105)))
(let ((.def_107 (+ .def_88 .def_106)))
(let ((.def_108 (+ .def_78 .def_107)))
(let ((.def_101 (* (- 10.0) .def_63)))
(let ((.def_109 (+ .def_101 .def_108)))
(let ((.def_110 (+ .def_103 .def_109)))
(let ((.def_111 (<= 0.0 .def_110)))
(let ((.def_64 (<= .def_63 b.y__AT0)))
(let ((.def_112 (and .def_64 .def_111)))
(let ((.def_139 (and .def_112 .def_138)))
(let ((.def_140 (and .def_71 .def_139)))
(let ((.def_72 (and .def_64 .def_71)))
(let ((.def_59 (or .def_56 .def_58)))
(let ((.def_49 (or .def_37 .def_39)))
(let ((.def_53 (or b.counter.3__AT0 .def_49)))
(let ((.def_50 (or b.counter.2__AT0 .def_49)))
(let ((.def_48 (or .def_39 .def_42)))
(let ((.def_51 (and .def_48 .def_50)))
(let ((.def_52 (or .def_45 .def_51)))
(let ((.def_54 (and .def_52 .def_53)))
(let ((.def_60 (and .def_54 .def_59)))
(let ((.def_73 (and .def_60 .def_72)))
(let ((.def_46 (and .def_43 .def_45)))
(let ((.def_34 (= b.speed_y__AT0 1.0 )))
(let ((.def_31 (= b.speed_x__AT0 1.0 )))
(let ((.def_27 (= b.y__AT0 10.0 )))
(let ((.def_23 (= b.x__AT0 0.0 )))
(let ((.def_19 (= b.time__AT0 0.0 )))
(let ((.def_21 (and .def_19 b.event_is_timed__AT0)))
(let ((.def_24 (and .def_21 .def_23)))
(let ((.def_28 (and .def_24 .def_27)))
(let ((.def_32 (and .def_28 .def_31)))
(let ((.def_35 (and .def_32 .def_34)))
(let ((.def_47 (and .def_35 .def_46)))
(let ((.def_74 (and .def_47 .def_73)))
(let ((.def_7 (and .def_4 .def_6)))
(let ((.def_14 (or .def_7 b.counter.3__AT1)))
(let ((.def_10 (and .def_7 .def_9)))
(let ((.def_13 (or .def_10 .def_12)))
(let ((.def_15 (and .def_13 .def_14)))
(let ((.def_16 (not .def_15)))
(let ((.def_75 (and .def_16 .def_74)))
(let ((.def_141 (and .def_75 .def_140)))
(let ((.def_335 (and .def_141 .def_334)))
(let ((.def_396 (and .def_335 .def_395)))
.def_396)))))))))))))))))))))))))))))))))))))))))))))))))))))))))))))))))))))))))))))))))))))))))))))))))))))))))))))))))))))))))))))))))))))))))))))))))))))))))))))))))))))))))))))))))))))))))))))))))))))))))))))))))))))))))))))))))))))))))))))))))))))))))))))))))))))))))))))))))))))))))))))))))))))))))))))))))))))))))))))))
(check-sat)
(exit)
